
Gurobi 11.0.1 (win64) logging started Mon May 13 15:45:42 2024

Set parameter LogFile to value "output/solver_log39.txt"
Gurobi Optimizer version 11.0.1 build v11.0.1rc0 (win64 - Windows 11.0 (22631.2))

CPU model: 11th Gen Intel(R) Core(TM) i7-1165G7 @ 2.80GHz, instruction set [SSE2|AVX|AVX2|AVX512]
Thread count: 4 physical cores, 8 logical processors, using up to 8 threads

Optimize a model with 2541 rows, 595 columns and 47283 nonzeros
Model fingerprint: 0xcf643f41
Variable types: 248 continuous, 347 integer (347 binary)
Coefficient statistics:
  Matrix range     [4e-01, 1e+05]
  Objective range  [1e+00, 1e+02]
  Bounds range     [1e+00, 1e+00]
  RHS range        [1e-02, 1e+05]

User MIP start produced solution with objective 78060.6 (0.01s)
User MIP start produced solution with objective 78060.6 (0.01s)
Loaded user MIP start with objective 78060.6

Presolve removed 198 rows and 178 columns
Presolve time: 0.07s
Presolved: 2343 rows, 417 columns, 45284 nonzeros
Variable types: 229 continuous, 188 integer (185 binary)

Root relaxation: objective 7.811392e+04, 596 iterations, 0.04 seconds (0.07 work units)

    Nodes    |    Current Node    |     Objective Bounds      |     Work
 Expl Unexpl |  Obj  Depth IntInf | Incumbent    BestBd   Gap | It/Node Time

     0     0 78113.9236    0    4 78060.6326 78113.9236  0.07%     -    0s
     0     0 78113.9236    0    4 78060.6326 78113.9236  0.07%     -    0s
     0     0 78113.9236    0    7 78060.6326 78113.9236  0.07%     -    0s
     0     0 78113.9236    0    5 78060.6326 78113.9236  0.07%     -    0s
     0     0 78113.9236    0    5 78060.6326 78113.9236  0.07%     -    0s
     0     2 78113.9236    0    5 78060.6326 78113.9236  0.07%     -    0s

Explored 82 nodes (2226 simplex iterations) in 0.66 seconds (0.93 work units)
Thread count was 8 (of 8 available processors)

Solution count 2: 78060.6 78060.6 

Optimal solution found (tolerance 1.00e-04)
Best objective 7.806063259032e+04, best bound 7.806063259032e+04, gap 0.0000%
